100
1000
494
491
483
473
472
465
464
461
461
460
457
453
445
444
443
442
442
438
435
424
421
421
412
409
406
405
402
395
395
391
391
389
389
380
378
375
374
371
369
366
361
360
360
357
353
349
348
346
343
341
338
336
335
334
330
326
316
310
308
307
302
298
288
287
283
281
272
263
262
259
255
248
247
243
234
230
229
229
228
226
223
222
221
218
214
205
203
196
195
192
189
187
183
182
180
176
175
175
173
173
